(set-logic HORN)
(declare-fun state (Int (Array Int Int) (Array Int Int) (Array Int Int) (Array Int Int) Int Int (Array Int Int) (Array Int Int) Int Int Int Int Int Int Int Int Int Int Int Int Int Int Int Int Int Int Int Int Int Bool Bool Bool Bool Bool Int Int (Array Int Int)) Bool)
(assert (forall ((|hhv_ULTIMATE.start_L26_0_Int| Int) (|hbv_ULTIMATE.start_L21-4_1_Array_Int_Int| (Array Int Int)) (|hhv_ULTIMATE.start_L26_2_Array_Int_Int| (Array Int Int)) (|hhv_ULTIMATE.start_L26_3_Array_Int_Array_Int_Int| (Array Int Int)) (|hhv_ULTIMATE.start_L26_4_Array_Int_Array_Int_Int| (Array Int Int)) (|hhv_ULTIMATE.start_L26_5_Int| Int) (|hhv_ULTIMATE.start_L26_6_Int| Int) (|hhv_ULTIMATE.start_L26_7_Array_Int_Int| (Array Int Int)) (|hhv_ULTIMATE.start_L26_8_Array_Int_Int| (Array Int Int)) (|hhv_ULTIMATE.start_L26_9_Int| Int) (|hhv_ULTIMATE.start_L26_10_Int| Int) (|hbv_ULTIMATE.start_L21-4_11_Int| Int) (|hhv_ULTIMATE.start_L26_12_Int| Int) (|hhv_ULTIMATE.start_L26_13_Int| Int) (|hhv_ULTIMATE.start_L26_14_Int| Int) (|hhv_ULTIMATE.start_L26_15_Int| Int) (|hhv_ULTIMATE.start_L26_16_Int| Int) (|hhv_ULTIMATE.start_L26_17_Int| Int) (|hhv_ULTIMATE.start_L26_18_Int| Int) (|hhv_ULTIMATE.start_L26_19_Int| Int) (|hbv_ULTIMATE.start_L21-4_20_Int| Int) (|hhv_ULTIMATE.start_L26_21_Int| Int) (|hbv_ULTIMATE.start_L21-4_22_Int| Int) (|hhv_ULTIMATE.start_L26_23_Int| Int) (|hhv_ULTIMATE.start_L26_24_Int| Int) (|hhv_ULTIMATE.start_L26_25_Int| Int) (|hhv_ULTIMATE.start_L26_26_Int| Int) (|hhv_ULTIMATE.start_L26_27_Int| Int) (|hhv_ULTIMATE.start_L26_28_Int| Int) (|hhv_ULTIMATE.start_L26_29_Int| Int) (|hhv_ULTIMATE.start_L26_30_Bool| Bool) (|.loc.5| Bool) (|.loc.6| Bool) (|.loc.7| Bool) (|.loc.8| Bool) (|hbv_ULTIMATE.start_L10_25_Int| Int) (|hbv_ULTIMATE.start_L10_26_Int| Int) (|hbv_ULTIMATE.start_L-1_1_Array_Int_Int| (Array Int Int)) (|.x.675| Int) (|.x.673| (Array Int Int)) (|.x.671| Int) (|.x.669| (Array Int Int)) (|.x.665| Int) (|.x.667| (Array Int Int)) (|.x.679| Int) (|.x.687| Int) (|.x.695| Bool) (|.x.666| (Array Int Int)) (|.x.677| Int) (|.x.684| Int) (|.x.692| Int) (|.x.693| Int) (|.x.685| Int) (|.x.676| Int) (|.x.689| Int) (|.x.682| Int) (|.loc.10| Bool) (|.loc.12| Bool) (|.loc.9| Bool) (|.x.683| Int) (|.x.680| Int) (|.loc.11| Bool) (|.x.678| Int) (|.x.672| (Array Int Int)) (|.x.670| Int) (|.x.674| Int) (|.x.681| Int) (|.x.686| Int) (|.x.688| Int) (|.x.690| Int) (|.x.691| Int) (|.x.694| Int) (|.x.668| (Array Int Int)) (|.xtv.1| Int) (|.xtv.2| Int) (|.xtv.3| (Array Int Int))) (=> (and (and (and .loc.7 (and .loc.5 (not .loc.6))) (not .loc.8)) (and (and (and (and (and (= hbv_ULTIMATE.start_L21-4_1_Array_Int_Int hhv_ULTIMATE.start_L26_2_Array_Int_Int) (= hhv_ULTIMATE.start_L26_7_Array_Int_Int hhv_ULTIMATE.start_L26_8_Array_Int_Int)) (= hhv_ULTIMATE.start_L26_5_Int hhv_ULTIMATE.start_L26_6_Int)) (= hhv_ULTIMATE.start_L26_9_Int hhv_ULTIMATE.start_L26_10_Int)) (= hhv_ULTIMATE.start_L26_3_Array_Int_Array_Int_Int hhv_ULTIMATE.start_L26_4_Array_Int_Array_Int_Int)) (not hhv_ULTIMATE.start_L26_30_Bool))) (state |hhv_ULTIMATE.start_L26_0_Int| |hbv_ULTIMATE.start_L21-4_1_Array_Int_Int| |hhv_ULTIMATE.start_L26_2_Array_Int_Int| |hhv_ULTIMATE.start_L26_3_Array_Int_Array_Int_Int| |hhv_ULTIMATE.start_L26_4_Array_Int_Array_Int_Int| |hhv_ULTIMATE.start_L26_5_Int| |hhv_ULTIMATE.start_L26_6_Int| |hhv_ULTIMATE.start_L26_7_Array_Int_Int| |hhv_ULTIMATE.start_L26_8_Array_Int_Int| |hhv_ULTIMATE.start_L26_9_Int| |hhv_ULTIMATE.start_L26_10_Int| |hbv_ULTIMATE.start_L21-4_11_Int| |hhv_ULTIMATE.start_L26_12_Int| |hhv_ULTIMATE.start_L26_13_Int| |hhv_ULTIMATE.start_L26_14_Int| |hhv_ULTIMATE.start_L26_15_Int| |hhv_ULTIMATE.start_L26_16_Int| |hhv_ULTIMATE.start_L26_17_Int| |hhv_ULTIMATE.start_L26_18_Int| |hhv_ULTIMATE.start_L26_19_Int| |hbv_ULTIMATE.start_L21-4_20_Int| |hhv_ULTIMATE.start_L26_21_Int| |hbv_ULTIMATE.start_L21-4_22_Int| |hhv_ULTIMATE.start_L26_23_Int| |hhv_ULTIMATE.start_L26_24_Int| |hhv_ULTIMATE.start_L26_25_Int| |hhv_ULTIMATE.start_L26_26_Int| |hhv_ULTIMATE.start_L26_27_Int| |hhv_ULTIMATE.start_L26_28_Int| |hhv_ULTIMATE.start_L26_29_Int| |hhv_ULTIMATE.start_L26_30_Bool| |.loc.5| |.loc.6| |.loc.7| |.loc.8| |hbv_ULTIMATE.start_L10_25_Int| |hbv_ULTIMATE.start_L10_26_Int| |hbv_ULTIMATE.start_L-1_1_Array_Int_Int|))))
(assert (forall ((|hhv_ULTIMATE.start_L26_0_Int| Int) (|hbv_ULTIMATE.start_L21-4_1_Array_Int_Int| (Array Int Int)) (|hhv_ULTIMATE.start_L26_2_Array_Int_Int| (Array Int Int)) (|hhv_ULTIMATE.start_L26_3_Array_Int_Array_Int_Int| (Array Int Int)) (|hhv_ULTIMATE.start_L26_4_Array_Int_Array_Int_Int| (Array Int Int)) (|hhv_ULTIMATE.start_L26_5_Int| Int) (|hhv_ULTIMATE.start_L26_6_Int| Int) (|hhv_ULTIMATE.start_L26_7_Array_Int_Int| (Array Int Int)) (|hhv_ULTIMATE.start_L26_8_Array_Int_Int| (Array Int Int)) (|hhv_ULTIMATE.start_L26_9_Int| Int) (|hhv_ULTIMATE.start_L26_10_Int| Int) (|hbv_ULTIMATE.start_L21-4_11_Int| Int) (|hhv_ULTIMATE.start_L26_12_Int| Int) (|hhv_ULTIMATE.start_L26_13_Int| Int) (|hhv_ULTIMATE.start_L26_14_Int| Int) (|hhv_ULTIMATE.start_L26_15_Int| Int) (|hhv_ULTIMATE.start_L26_16_Int| Int) (|hhv_ULTIMATE.start_L26_17_Int| Int) (|hhv_ULTIMATE.start_L26_18_Int| Int) (|hhv_ULTIMATE.start_L26_19_Int| Int) (|hbv_ULTIMATE.start_L21-4_20_Int| Int) (|hhv_ULTIMATE.start_L26_21_Int| Int) (|hbv_ULTIMATE.start_L21-4_22_Int| Int) (|hhv_ULTIMATE.start_L26_23_Int| Int) (|hhv_ULTIMATE.start_L26_24_Int| Int) (|hhv_ULTIMATE.start_L26_25_Int| Int) (|hhv_ULTIMATE.start_L26_26_Int| Int) (|hhv_ULTIMATE.start_L26_27_Int| Int) (|hhv_ULTIMATE.start_L26_28_Int| Int) (|hhv_ULTIMATE.start_L26_29_Int| Int) (|hhv_ULTIMATE.start_L26_30_Bool| Bool) (|.loc.5| Bool) (|.loc.6| Bool) (|.loc.7| Bool) (|.loc.8| Bool) (|hbv_ULTIMATE.start_L10_25_Int| Int) (|hbv_ULTIMATE.start_L10_26_Int| Int) (|hbv_ULTIMATE.start_L-1_1_Array_Int_Int| (Array Int Int)) (|.x.675| Int) (|.x.673| (Array Int Int)) (|.x.671| Int) (|.x.669| (Array Int Int)) (|.x.665| Int) (|.x.667| (Array Int Int)) (|.x.679| Int) (|.x.687| Int) (|.x.695| Bool) (|.x.666| (Array Int Int)) (|.x.677| Int) (|.x.684| Int) (|.x.692| Int) (|.x.693| Int) (|.x.685| Int) (|.x.676| Int) (|.x.689| Int) (|.x.682| Int) (|.loc.10| Bool) (|.loc.12| Bool) (|.loc.9| Bool) (|.x.683| Int) (|.x.680| Int) (|.loc.11| Bool) (|.x.678| Int) (|.x.672| (Array Int Int)) (|.x.670| Int) (|.x.674| Int) (|.x.681| Int) (|.x.686| Int) (|.x.688| Int) (|.x.690| Int) (|.x.691| Int) (|.x.694| Int) (|.x.668| (Array Int Int)) (|.xtv.1| Int) (|.xtv.2| Int) (|.xtv.3| (Array Int Int))) (=> (and (state |hhv_ULTIMATE.start_L26_0_Int| |hbv_ULTIMATE.start_L21-4_1_Array_Int_Int| |hhv_ULTIMATE.start_L26_2_Array_Int_Int| |hhv_ULTIMATE.start_L26_3_Array_Int_Array_Int_Int| |hhv_ULTIMATE.start_L26_4_Array_Int_Array_Int_Int| |hhv_ULTIMATE.start_L26_5_Int| |hhv_ULTIMATE.start_L26_6_Int| |hhv_ULTIMATE.start_L26_7_Array_Int_Int| |hhv_ULTIMATE.start_L26_8_Array_Int_Int| |hhv_ULTIMATE.start_L26_9_Int| |hhv_ULTIMATE.start_L26_10_Int| |hbv_ULTIMATE.start_L21-4_11_Int| |hhv_ULTIMATE.start_L26_12_Int| |hhv_ULTIMATE.start_L26_13_Int| |hhv_ULTIMATE.start_L26_14_Int| |hhv_ULTIMATE.start_L26_15_Int| |hhv_ULTIMATE.start_L26_16_Int| |hhv_ULTIMATE.start_L26_17_Int| |hhv_ULTIMATE.start_L26_18_Int| |hhv_ULTIMATE.start_L26_19_Int| |hbv_ULTIMATE.start_L21-4_20_Int| |hhv_ULTIMATE.start_L26_21_Int| |hbv_ULTIMATE.start_L21-4_22_Int| |hhv_ULTIMATE.start_L26_23_Int| |hhv_ULTIMATE.start_L26_24_Int| |hhv_ULTIMATE.start_L26_25_Int| |hhv_ULTIMATE.start_L26_26_Int| |hhv_ULTIMATE.start_L26_27_Int| |hhv_ULTIMATE.start_L26_28_Int| |hhv_ULTIMATE.start_L26_29_Int| |hhv_ULTIMATE.start_L26_30_Bool| |.loc.5| |.loc.6| |.loc.7| |.loc.8| |hbv_ULTIMATE.start_L10_25_Int| |hbv_ULTIMATE.start_L10_26_Int| |hbv_ULTIMATE.start_L-1_1_Array_Int_Int|) (let ((.def_48 (not .loc.6))) (let ((.def_51 (not .loc.8))) (let ((.def_95 (= hhv_ULTIMATE.start_L26_12_Int .x.677))) (let ((.def_98 (= hhv_ULTIMATE.start_L26_19_Int .x.684))) (let ((.def_101 (= hhv_ULTIMATE.start_L26_27_Int .x.692))) (let ((.def_104 (= hhv_ULTIMATE.start_L26_28_Int .x.693))) (let ((.def_106 (= hhv_ULTIMATE.start_L26_30_Bool .x.695))) (let ((.def_110 (= .x.677 0))) (let ((.def_114 (= hbv_ULTIMATE.start_L21-4_22_Int .x.687))) (let ((.def_117 (= hbv_ULTIMATE.start_L21-4_20_Int .x.685))) (let ((.def_119 (= hhv_ULTIMATE.start_L26_14_Int .x.679))) (let ((.def_122 (= hbv_ULTIMATE.start_L21-4_11_Int .x.676))) (let ((.def_124 (= hbv_ULTIMATE.start_L21-4_1_Array_Int_Int .x.666))) (let ((.def_129 (select hhv_ULTIMATE.start_L26_3_Array_Int_Array_Int_Int hbv_ULTIMATE.start_L21-4_20_Int))) (let ((.def_145 (<= 100000 hhv_ULTIMATE.start_L26_24_Int))) (let ((.def_148 (or hhv_ULTIMATE.start_L26_30_Bool (and (and (= .x.684 (select .def_129 (+ hbv_ULTIMATE.start_L21-4_11_Int (* 4 hhv_ULTIMATE.start_L26_24_Int)))) (and (= .x.693 (select .def_129 (+ hbv_ULTIMATE.start_L21-4_11_Int (* 4 hhv_ULTIMATE.start_L26_15_Int)))) (and (= .x.677 .x.692) (= .x.692 (ite (<= .x.693 .x.684) 1 0))))) (not .def_145))))) (let ((.def_152 (= hhv_ULTIMATE.start_L26_24_Int .x.689))) (let ((.def_154 (= hhv_ULTIMATE.start_L26_17_Int .x.682))) (let ((.def_162 (not .loc.9))) (let ((.def_171 (and .def_106 (and .def_95 .def_101)))) (let ((.def_179 (not .loc.12))) (let ((.def_181 (not .loc.10))) (let ((.def_183 (not .loc.5))) (let ((.def_187 (and hhv_ULTIMATE.start_L26_30_Bool .def_95))) (let ((.def_205 (<= 100000 hhv_ULTIMATE.start_L26_15_Int))) (let ((.def_207 (and .def_95 .def_154))) (let ((.def_208 (and .def_98 .def_207))) (let ((.def_212 (and .def_106 (and .def_104 (and .def_101 (and .def_152 .def_208)))))) (let ((.def_246 (= hhv_ULTIMATE.start_L26_18_Int .x.683))) (let ((.def_248 (= hhv_ULTIMATE.start_L26_15_Int .x.680))) (let ((.def_269 (not .loc.7))) (let ((.def_299 (and .def_106 (and .def_104 (and .def_101 (and .def_152 (and .def_98 (and .def_246 (and .def_154 (and .def_187 .def_248)))))))))) (let ((.def_321 (and .def_106 (and .def_104 (and .def_101 (and .def_152 (and .def_98 (and .def_246 (and .def_154 (and .def_95 .def_248)))))))))) (let ((.def_322 (and .loc.5 .def_321))) (let ((.def_377 (not .loc.11))) (let ((.def_393 (= hhv_ULTIMATE.start_L26_21_Int 0))) (let ((.def_424 (<= 100000 hhv_ULTIMATE.start_L26_13_Int))) (let ((.def_442 (= hhv_ULTIMATE.start_L26_13_Int .x.678))) (let ((.def_463 (= hhv_ULTIMATE.start_L26_7_Array_Int_Int .x.672))) (let ((.def_465 (= hhv_ULTIMATE.start_L26_5_Int .x.670))) (let ((.def_468 (= hhv_ULTIMATE.start_L26_9_Int .x.674))) (let ((.def_469 (and (and .def_463 .def_465) .def_468))) (let ((.def_471 (= hhv_ULTIMATE.start_L26_16_Int .x.681))) (let ((.def_474 (= hhv_ULTIMATE.start_L26_21_Int .x.686))) (let ((.def_477 (= hhv_ULTIMATE.start_L26_23_Int .x.688))) (let ((.def_480 (= hhv_ULTIMATE.start_L26_25_Int .x.690))) (let ((.def_483 (= hhv_ULTIMATE.start_L26_26_Int .x.691))) (let ((.def_486 (= hhv_ULTIMATE.start_L26_29_Int .x.694))) (let ((.def_501 (= .x.686 1))) (let ((.def_534 (and .def_95 .def_469))) (let ((.def_564 (= hhv_ULTIMATE.start_L26_3_Array_Int_Array_Int_Int .x.668))) (let ((.def_566 (<= hbv_ULTIMATE.start_L10_26_Int hbv_ULTIMATE.start_L10_25_Int))) (let ((.def_570 (select hhv_ULTIMATE.start_L26_3_Array_Int_Array_Int_Int .x.685))) (let ((.def_618 (or hhv_ULTIMATE.start_L26_30_Bool (and (and (= hbv_ULTIMATE.start_L10_26_Int (select .def_129 (+ (+ hbv_ULTIMATE.start_L21-4_11_Int (* 4 hhv_ULTIMATE.start_L26_13_Int)) (- 4)))) (= hbv_ULTIMATE.start_L10_25_Int (select .def_129 (+ hbv_ULTIMATE.start_L21-4_11_Int (* 4 hhv_ULTIMATE.start_L26_13_Int))))) (not .def_424))))) (and (and (= hhv_ULTIMATE.start_L26_10_Int .x.675) (and (= hhv_ULTIMATE.start_L26_8_Array_Int_Int .x.673) (and (= hhv_ULTIMATE.start_L26_6_Int .x.671) (and (= hhv_ULTIMATE.start_L26_4_Array_Int_Array_Int_Int .x.669) (and (= hhv_ULTIMATE.start_L26_0_Int .x.665) (= hhv_ULTIMATE.start_L26_2_Array_Int_Int .x.667)))))) (or (or (and (or (or (and (or (and (or (or (or (or (and (or (or (or (or (or (and (or (and (or (or (or (or (and (or (and .loc.8 (and (or (= .x.679 .x.687) .x.695) (and (and (and (and (and (or hhv_ULTIMATE.start_L26_30_Bool (and (= (store hbv_ULTIMATE.start_L21-4_1_Array_Int_Int hbv_ULTIMATE.start_L21-4_20_Int 0) .x.666) (= .x.687 0))) .def_95) .def_98) .def_101) .def_104) .def_106))) (and (and (and (and (and (and (and (or hhv_ULTIMATE.start_L26_30_Bool .def_110) (and .def_51 .x.695)) .def_114) .def_117) .def_119) .def_122) .def_124) .def_148)) (and (and (and (and .loc.5 (and .def_152 .def_154)) .loc.10) .loc.12) .def_162)) (and (or .x.695 (= (+ hhv_ULTIMATE.start_L26_24_Int (* (- 1) .x.689)) (- 1))) (and (and (and (and .def_124 (and .def_122 (and .def_119 (and .def_117 (and .def_114 (and .def_51 (and .loc.9 .def_171))))))) .def_179) .def_181) .def_183))) (and .def_183 (and .def_181 (and .def_124 (and .def_122 (and .def_119 (and .def_117 (and .def_114 (and .loc.12 (and .loc.9 (and .loc.8 (and .def_106 (and .def_104 (and .def_101 (and .def_152 (and .def_98 (and .def_154 .def_187))))))))))))))))) (and (or hhv_ULTIMATE.start_L26_30_Bool .def_205) (and .def_183 (and .def_181 (and .def_124 (and .def_122 (and .def_119 (and .def_117 (and .def_114 (and .loc.12 (and .loc.9 (and .loc.8 .def_212)))))))))))) (and (or hhv_ULTIMATE.start_L26_30_Bool (and (= (+ hhv_ULTIMATE.start_L26_15_Int (* (- 1) .x.689)) (- 1)) (not .def_205))) (and .def_183 (and .def_181 (and .def_179 (and .def_124 (and .def_122 (and .def_119 (and .def_117 (and .def_114 (and .loc.9 (and .loc.8 (and .def_106 (and .def_104 (and .def_101 .def_208))))))))))))))) (and .def_48 (and .def_246 .def_248))) (and (or hhv_ULTIMATE.start_L26_30_Bool (= (+ hhv_ULTIMATE.start_L26_15_Int (* (- 1) .x.680)) (- 1))) (and .def_183 (and .def_181 (and .def_124 (and .def_122 (and .def_119 (and .def_117 (and .def_114 (and .def_51 (and .def_162 (and .loc.12 (and .loc.6 .def_212))))))))))))) .def_269) (and (or hhv_ULTIMATE.start_L26_30_Bool (= .x.680 0)) (and .def_181 (and .def_124 (and .def_122 (and .def_119 (and .def_117 (and .def_114 (and .def_51 (and .def_162 (and .loc.12 (and .loc.7 (and .loc.6 (and .loc.5 (and .def_106 (and .def_104 (and .def_101 (and .def_98 (and .def_207 .def_246))))))))))))))))))) (and .def_179 (and .def_124 (and .def_122 (and .def_119 (and .def_117 (and .def_114 (and .def_51 (and .def_162 (and .loc.10 (and .def_269 (and .def_48 (and .loc.5 .def_299))))))))))))) (and (or hhv_ULTIMATE.start_L26_30_Bool .def_145) (and .def_179 (and .def_124 (and .def_122 (and .def_119 (and .def_117 (and .def_114 (and .def_51 (and .def_162 (and .loc.10 (and .def_269 (and .def_48 .def_322))))))))))))) (and (or .x.695 (not .def_110)) (and .def_181 (and .def_179 (and .def_148 (and .def_124 (and .def_122 (and .def_119 (and .def_117 (and .def_114 (and .def_51 (and .def_162 (and .def_269 (and .def_48 (and .loc.5 (and .def_106 (and .def_152 (and .def_246 (and .def_154 .def_248))))))))))))))))))) (and .def_181 (and .def_179 (and .def_148 (and .def_124 (and .def_122 (and .def_119 (and .def_117 (and .def_114 (and .def_51 (and .def_162 (and .def_269 (and .def_48 (and .loc.5 (and .def_152 (and .def_246 (and .def_154 (and .def_248 (and hhv_ULTIMATE.start_L26_30_Bool .x.695))))))))))))))))))) .def_377) (and .def_183 (and .def_179 (and .def_124 (and .def_122 (and .def_119 (and .def_117 (and .def_114 (and .def_51 (and .loc.11 (and .loc.10 (and .loc.9 (and .loc.7 (and .loc.6 .def_299)))))))))))))) (and (or hhv_ULTIMATE.start_L26_30_Bool .def_393) (and .def_183 (and .def_179 (and .def_124 (and .def_122 (and .def_119 (and .def_117 (and .def_114 (and .def_51 (and .loc.11 (and .loc.10 (and .loc.9 (and .loc.7 (and .loc.6 .def_321))))))))))))))) (and .def_183 (and .def_179 (and .def_124 (and .def_122 (and .def_119 (and .def_117 (and .def_114 (and .def_51 (and .def_162 (and .loc.11 (and .loc.10 (and .def_48 (and .loc.7 .def_299)))))))))))))) (and (or hhv_ULTIMATE.start_L26_30_Bool .def_424) (and .def_183 (and .def_179 (and .def_124 (and .def_122 (and .def_119 (and .def_117 (and .def_114 (and .def_51 (and .def_162 (and .loc.11 (and .loc.10 (and .def_48 (and .loc.7 .def_321))))))))))))))) .def_442) (and (or hhv_ULTIMATE.start_L26_30_Bool (= (+ hhv_ULTIMATE.start_L26_13_Int (* (- 1) .x.678)) (- 1))) (and .def_181 (and .def_179 (and .def_124 (and .def_122 (and .def_119 (and .def_117 (and .def_114 (and .def_51 (and .def_162 (and .loc.11 (and .def_269 (and .loc.6 .def_322)))))))))))))) (and (and (and (and (and (and .def_469 .def_471) .def_474) .def_477) .def_480) .def_483) .def_486)) (and (or hhv_ULTIMATE.start_L26_30_Bool (and (and (= .x.670 0) (= .x.674 0)) (= hbv_ULTIMATE.start_L-1_1_Array_Int_Int (store hbv_ULTIMATE.start_L21-4_1_Array_Int_Int 0 0)))) (and (or .x.695 (and (and (and (and (and (= .x.672 (store hhv_ULTIMATE.start_L26_7_Array_Int_Int .x.685 400000)) (and (= (select hbv_ULTIMATE.start_L-1_1_Array_Int_Int .x.685) 0) .def_501)) (not (= .x.685 0))) (= .x.666 (store hbv_ULTIMATE.start_L-1_1_Array_Int_Int .x.685 1))) (not (<= .x.665 .x.685))) (= .x.676 0))) (and .def_179 (and .def_119 (and .def_51 (and .def_162 (and .loc.11 (and .loc.10 (and .def_48 (and .loc.7 (and .loc.5 .def_171)))))))))))) (and (or hhv_ULTIMATE.start_L26_30_Bool (and (= .x.686 0) (and (not .def_393) (= .x.678 1)))) (and .def_183 (and .def_181 (and .def_179 (and .def_124 (and .def_122 (and .def_119 (and .def_117 (and .def_114 (and .def_51 (and .def_162 (and .loc.11 (and .loc.7 (and .loc.6 (and .def_106 (and .def_486 (and .def_104 (and .def_101 (and .def_483 (and .def_480 (and .def_152 (and .def_477 (and .def_98 (and .def_246 (and .def_154 (and .def_471 (and .def_248 .def_534)))))))))))))))))))))))))))) .def_564) (and (and (or .x.695 (and (and .def_501 (and (not .def_566) (= .x.681 (select .def_570 (+ .x.676 (* 4 .x.678)))))) (= .x.668 (store hhv_ULTIMATE.start_L26_3_Array_Int_Array_Int_Int .x.685 (store (store .def_570 (+ .x.676 (* 4 .x.678)) (select .def_570 (+ (+ .x.676 (* 4 .x.678)) (- 4)))) (+ (+ .x.676 (* 4 .x.678)) (- 4)) .x.681))))) (and .def_183 (and .def_179 (and .def_124 (and .def_122 (and .def_119 (and .def_117 (and .def_114 (and .def_51 (and .def_377 (and .loc.10 (and .loc.9 (and .def_48 (and .loc.7 (and .def_106 (and .def_104 (and .def_101 (and .def_152 (and .def_98 (and .def_246 (and .def_154 (and .def_248 (and .def_442 .def_534))))))))))))))))))))))) .def_618)) (and (or .x.695 .def_566) (and .def_618 (and .def_183 (and .def_179 (and .def_124 (and .def_122 (and .def_119 (and .def_117 (and .def_114 (and .def_51 (and .def_377 (and .loc.10 (and .loc.9 (and .def_48 (and .loc.7 (and .def_106 (and .def_486 (and .def_104 (and .def_101 (and .def_152 (and .def_477 (and .def_474 (and .def_98 (and .def_246 (and .def_154 (and .def_471 (and .def_248 (and .def_442 (and .def_95 (and .def_468 (and .def_463 (and .def_465 .def_564))))))))))))))))))))))))))))))))))))))))))))))))))))))))))))))))))))))))))))))))))))))))) (state |.x.665| |.x.666| |.x.667| |.x.668| |.x.669| |.x.670| |.x.671| |.x.672| |.x.673| |.x.674| |.x.675| |.x.676| |.x.677| |.x.678| |.x.679| |.x.680| |.x.681| |.x.682| |.x.683| |.x.684| |.x.685| |.x.686| |.x.687| |.x.688| |.x.689| |.x.690| |.x.691| |.x.692| |.x.693| |.x.694| |.x.695| |.loc.9| |.loc.10| |.loc.11| |.loc.12| |.xtv.1| |.xtv.2| |.xtv.3|))))
(assert (forall ((|hhv_ULTIMATE.start_L26_0_Int| Int) (|hbv_ULTIMATE.start_L21-4_1_Array_Int_Int| (Array Int Int)) (|hhv_ULTIMATE.start_L26_2_Array_Int_Int| (Array Int Int)) (|hhv_ULTIMATE.start_L26_3_Array_Int_Array_Int_Int| (Array Int Int)) (|hhv_ULTIMATE.start_L26_4_Array_Int_Array_Int_Int| (Array Int Int)) (|hhv_ULTIMATE.start_L26_5_Int| Int) (|hhv_ULTIMATE.start_L26_6_Int| Int) (|hhv_ULTIMATE.start_L26_7_Array_Int_Int| (Array Int Int)) (|hhv_ULTIMATE.start_L26_8_Array_Int_Int| (Array Int Int)) (|hhv_ULTIMATE.start_L26_9_Int| Int) (|hhv_ULTIMATE.start_L26_10_Int| Int) (|hbv_ULTIMATE.start_L21-4_11_Int| Int) (|hhv_ULTIMATE.start_L26_12_Int| Int) (|hhv_ULTIMATE.start_L26_13_Int| Int) (|hhv_ULTIMATE.start_L26_14_Int| Int) (|hhv_ULTIMATE.start_L26_15_Int| Int) (|hhv_ULTIMATE.start_L26_16_Int| Int) (|hhv_ULTIMATE.start_L26_17_Int| Int) (|hhv_ULTIMATE.start_L26_18_Int| Int) (|hhv_ULTIMATE.start_L26_19_Int| Int) (|hbv_ULTIMATE.start_L21-4_20_Int| Int) (|hhv_ULTIMATE.start_L26_21_Int| Int) (|hbv_ULTIMATE.start_L21-4_22_Int| Int) (|hhv_ULTIMATE.start_L26_23_Int| Int) (|hhv_ULTIMATE.start_L26_24_Int| Int) (|hhv_ULTIMATE.start_L26_25_Int| Int) (|hhv_ULTIMATE.start_L26_26_Int| Int) (|hhv_ULTIMATE.start_L26_27_Int| Int) (|hhv_ULTIMATE.start_L26_28_Int| Int) (|hhv_ULTIMATE.start_L26_29_Int| Int) (|hhv_ULTIMATE.start_L26_30_Bool| Bool) (|.loc.5| Bool) (|.loc.6| Bool) (|.loc.7| Bool) (|.loc.8| Bool) (|hbv_ULTIMATE.start_L10_25_Int| Int) (|hbv_ULTIMATE.start_L10_26_Int| Int) (|hbv_ULTIMATE.start_L-1_1_Array_Int_Int| (Array Int Int)) (|.x.675| Int) (|.x.673| (Array Int Int)) (|.x.671| Int) (|.x.669| (Array Int Int)) (|.x.665| Int) (|.x.667| (Array Int Int)) (|.x.679| Int) (|.x.687| Int) (|.x.695| Bool) (|.x.666| (Array Int Int)) (|.x.677| Int) (|.x.684| Int) (|.x.692| Int) (|.x.693| Int) (|.x.685| Int) (|.x.676| Int) (|.x.689| Int) (|.x.682| Int) (|.loc.10| Bool) (|.loc.12| Bool) (|.loc.9| Bool) (|.x.683| Int) (|.x.680| Int) (|.loc.11| Bool) (|.x.678| Int) (|.x.672| (Array Int Int)) (|.x.670| Int) (|.x.674| Int) (|.x.681| Int) (|.x.686| Int) (|.x.688| Int) (|.x.690| Int) (|.x.691| Int) (|.x.694| Int) (|.x.668| (Array Int Int)) (|.xtv.1| Int) (|.xtv.2| Int) (|.xtv.3| (Array Int Int))) (=> (state |hhv_ULTIMATE.start_L26_0_Int| |hbv_ULTIMATE.start_L21-4_1_Array_Int_Int| |hhv_ULTIMATE.start_L26_2_Array_Int_Int| |hhv_ULTIMATE.start_L26_3_Array_Int_Array_Int_Int| |hhv_ULTIMATE.start_L26_4_Array_Int_Array_Int_Int| |hhv_ULTIMATE.start_L26_5_Int| |hhv_ULTIMATE.start_L26_6_Int| |hhv_ULTIMATE.start_L26_7_Array_Int_Int| |hhv_ULTIMATE.start_L26_8_Array_Int_Int| |hhv_ULTIMATE.start_L26_9_Int| |hhv_ULTIMATE.start_L26_10_Int| |hbv_ULTIMATE.start_L21-4_11_Int| |hhv_ULTIMATE.start_L26_12_Int| |hhv_ULTIMATE.start_L26_13_Int| |hhv_ULTIMATE.start_L26_14_Int| |hhv_ULTIMATE.start_L26_15_Int| |hhv_ULTIMATE.start_L26_16_Int| |hhv_ULTIMATE.start_L26_17_Int| |hhv_ULTIMATE.start_L26_18_Int| |hhv_ULTIMATE.start_L26_19_Int| |hbv_ULTIMATE.start_L21-4_20_Int| |hhv_ULTIMATE.start_L26_21_Int| |hbv_ULTIMATE.start_L21-4_22_Int| |hhv_ULTIMATE.start_L26_23_Int| |hhv_ULTIMATE.start_L26_24_Int| |hhv_ULTIMATE.start_L26_25_Int| |hhv_ULTIMATE.start_L26_26_Int| |hhv_ULTIMATE.start_L26_27_Int| |hhv_ULTIMATE.start_L26_28_Int| |hhv_ULTIMATE.start_L26_29_Int| |hhv_ULTIMATE.start_L26_30_Bool| |.loc.5| |.loc.6| |.loc.7| |.loc.8| |hbv_ULTIMATE.start_L10_25_Int| |hbv_ULTIMATE.start_L10_26_Int| |hbv_ULTIMATE.start_L-1_1_Array_Int_Int|) (not (and hhv_ULTIMATE.start_L26_30_Bool (and .loc.8 (and (not .loc.7) (and .loc.6 (not .loc.5)))))))))
(check-sat)
